29
-1 null 0 0.0 0.0 0.0
1 1 0 0.0 0.0 0.0
2 1 0 0.0 0.0 0.0
3 1 0 0.0 0.0 0.0
4 1 0 103.0 71.0 0.0
5 1 0 125.0 175.0 0.0
6 1 0 182.0 180.0 0.0
7 1 0 182.0 180.0 0.0
8 1 0 114.0 56.0 0.0
9 1 0 328.0 206.0 0.0
10 1 0 151.0 227.0 0.0
11 1 0 309.0 68.0 0.0
12 1 0 195.0 51.0 0.0
13 1 0 146.0 64.0 0.0
14 1 0 311.0 258.0 0.0
15 1 0 86.0 57.0 0.0
16 1 0 86.0 57.0 0.0
17 1 0 110.0 56.0 0.0
18 1 0 159.0 64.0 0.0
19 1 0 159.0 64.0 0.0
20 1 0 100.0 176.0 0.0
21 1 0 152.0 127.0 0.0
22 1 0 152.0 127.0 0.0
23 1 0 201.0 90.0 0.0
24 1 0 226.0 148.0 0.0
25 1 0 130.0 286.0 0.0
26 1 0 178.0 38.0 0.0
27 1 0 120.0 205.0 0.0
28 1 0 145.0 36.0 0.0
29 1 0 145.0 36.0 0.0
